Data path: /scratch/opt/lxu/CFLG/benchmarks/random_A
Instance: r_15_0.3_25.txt
Result path: /scratch/opt/lxu/CFLG/results/random_A
Solver: Gurobi
Time limit: 3600
Formulation: LEFPV2
Cover: Small
julia --project=. src/main.jl /scratch/opt/lxu/CFLG/benchmarks/random_A r_15_0.3_25.txt /scratch/opt/lxu/CFLG/results/random_A Gurobi 3600 LEFPV2 Small
The latest version of Julia in the `release` channel is 1.11.5+0.x64.linux.gnu. You currently have `1.11.4+0.x64.linux.gnu` installed. Run:

  juliaup update

in your terminal shell to install Julia 1.11.5+0.x64.linux.gnu and update the `release` channel to that version.
/scratch/opt/lxu/CFLG/benchmarks/random_A Gurobi 3600.0 /scratch/opt/lxu/CFLG/results/random_A r_15_0.3_25.txt LEFPV2 Small
/scratch/opt/lxu/CFLG/benchmarks/random_A/r_15_0.3_25.txt

 read graph
data loaded


after absorb:10 15

max_piece:16
problem_graph/original graph: node: 11/15 edge: 21/25 dlt: 0.1520455682071622 break_avg_len: 0.7240265152722012 break_max_len: 2.218773202861688elapsed CPU time: 0.047198 seconds
Set parameter TokenServer to value "solice01.zib.de"
Set parameter Threads to value 1
Set parameter OutputFlag to value 1
Set parameter MIPGap to value 0.0001
Set parameter MIPGapAbs to value 1
Set parameter TimeLimit to value 3599.952802

 more cuts:true
formulation:LEFPV219 2 1
Set parameter PreCrush to value 1

 model loaded

Gurobi Optimizer version 12.0.1 build v12.0.1rc0 (linux64 - "Debian GNU/Linux 12 (bookworm)")

CPU model: Intel(R) Xeon(R) Gold 5122 CPU @ 3.60GHz, instruction set [SSE2|AVX|AVX2|AVX512]
Thread count: 8 physical cores, 16 logical processors, using up to 1 threads

Non-default parameters:
TimeLimit  3599.952802
MIPGapAbs  1
PreCrush  1
Threads  1

Optimize a model with 524 rows, 282 columns and 1218 nonzeros
Model fingerprint: 0x8bc2a767
Variable types: 74 continuous, 208 integer (208 binary)
Coefficient statistics:
  Matrix range     [1e-01, 2e+00]
  Objective range  [1e+00, 1e+00]
  Bounds range     [1e-01, 2e+00]
  RHS range        [1e-02, 2e+00]
Found heuristic solution: objective 56.0000000
Presolve removed 257 rows and 112 columns
Presolve time: 0.01s
Presolved: 267 rows, 170 columns, 982 nonzeros
Variable types: 51 continuous, 119 integer (119 binary)

Root relaxation: objective 4.100000e+01, 91 iterations, 0.00 seconds (0.00 work units)

    Nodes    |    Current Node    |     Objective Bounds      |     Work
 Expl Unexpl |  Obj  Depth IntInf | Incumbent    BestBd   Gap | It/Node Time

     0     0   41.00000    0   20   56.00000   41.00000  26.8%     -    0s
H    0     0                      46.0000000   41.00000  10.9%     -    0s
     0     0   41.80183    0   26   46.00000   41.80183  9.13%     -    0s
     0     0   43.00000    0   28   46.00000   43.00000  6.52%     -    0s
     0     0   43.00000    0   28   46.00000   43.00000  6.52%     -    0s
     0     0   43.16584    0   33   46.00000   43.16584  6.16%     -    0s
     0     0   43.20079    0   35   46.00000   43.20079  6.09%     -    0s
     0     0   43.20079    0   36   46.00000   43.20079  6.09%     -    0s
     0     0   43.50000    0   24   46.00000   43.50000  5.43%     -    0s
     0     0   43.50000    0   27   46.00000   43.50000  5.43%     -    0s
     0     0   43.50000    0   27   46.00000   43.50000  5.43%     -    0s
     0     0   43.50000    0   32   46.00000   43.50000  5.43%     -    0s
     0     0   43.50000    0   19   46.00000   43.50000  5.43%     -    0s
     0     0   43.50000    0   22   46.00000   43.50000  5.43%     -    0s
     0     0   43.50000    0   14   46.00000   43.50000  5.43%     -    0s
     0     0   43.50000    0   20   46.00000   43.50000  5.43%     -    0s
     0     0   43.50000    0   19   46.00000   43.50000  5.43%     -    0s
     0     0   43.50000    0   18   46.00000   43.50000  5.43%     -    0s
     0     2   44.00000    0   18   46.00000   44.00000  4.35%     -    0s

Cutting planes:
  Gomory: 6
  Cover: 50
  Implied bound: 23
  MIR: 74
  StrongCG: 2
  GUB cover: 5
  Inf proof: 4
  RLT: 9
  Relax-and-lift: 11

Explored 810 nodes (9827 simplex iterations) in 0.38 seconds (0.21 work units)
Thread count was 1 (of 16 available processors)

Solution count 2: 46 56 

Optimal solution found (tolerance 1.00e-04)
Best objective 4.600000000000e+01, best bound 4.500000000000e+01, gap 2.1739%

User-callback calls 2614, time in user-callback 0.88 sec

 sepatime0
46.0Stat(MathOptInterface.OPTIMAL, 46.0, 45.00000000000001, 0.021739130434782455, 0.0, 0.047198, 0.3834052085876465, 810, Main.CFLG.LEFPV2, "", #undef)
